Name:		CBMix1
Optimal value:	-1
#Vehicles:	-1
Capacity:	1802
Depot Node:	1
#Nodes:		21
#Edges:		0
#Arcs:		66
#Required N:	11
#Required E:	0
#Required A:	37

ReN.	DEMAND	S. COST
N2	355	355
N4	346	346
N5	458	458
N8	198	198
N10	480	480
N11	380	380
N15	494	494
N16	317	317
N17	394	394
N19	470	470
N21	353	353

ReE.	From N.	To N.	T. COST	DEMAND	S. COST

EDGE	FROM N.	TO N.	T. COST

ReA.	FROM N.	TO N.	T. COST	DEMAND	S. COST
A1	2	1	39	322	361
A2	2	6	53	28	81
A3	3	4	18	287	305
A4	3	8	40	44	84
A5	4	3	18	183	201
A6	4	5	17	227	244
A7	5	4	17	107	124
A8	5	10	33	127	160
A9	6	2	53	215	268
A10	7	2	37	318	355
A11	7	12	39	353	392
A12	8	7	39	351	390
A13	8	13	34	209	243
A14	9	8	18	212	230
A15	10	5	33	48	81
A16	10	9	20	236	256
A17	11	12	35	126	161
A18	12	7	39	148	187
A19	12	11	35	315	350
A20	13	12	39	66	105
A21	13	14	40	30	70
A22	13	16	19	217	236
A23	14	10	42	231	273
A24	14	13	40	394	434
A25	15	12	22	244	266
A26	15	16	37	48	85
A27	15	19	18	201	219
A28	16	15	37	311	348
A29	16	17	39	131	170
A30	17	14	17	363	380
A31	18	11	42	242	284
A32	18	19	38	251	289
A33	19	15	18	289	307
A34	19	18	38	121	159
A35	19	20	39	388	427
A36	20	19	39	207	246
A37	21	20	40	321	361

ARC	FROM N.	TO N.	T. COST
NrA1	1	2	39
NrA2	1	6	41
NrA3	2	3	42
NrA4	2	7	37
NrA5	3	2	42
NrA6	4	9	40
NrA7	6	1	41
NrA8	6	7	38
NrA9	6	11	36
NrA10	7	6	38
NrA11	7	8	39
NrA12	8	3	40
NrA13	8	9	18
NrA14	9	4	40
NrA15	9	10	20
NrA16	10	14	42
NrA17	11	6	36
NrA18	11	18	42
NrA19	12	13	39
NrA20	12	15	22
NrA21	13	8	34
NrA22	14	17	17
NrA23	16	13	19
NrA24	16	20	26
NrA25	17	16	39
NrA26	17	21	17
NrA27	20	16	26
NrA28	20	21	40
NrA29	21	17	17

